30 30
20
3 3   18 27
3 4   21 26
3 5   15 25
3 6   27 24
3 7   24 23
3 8   18 19
3 9   24 14
3 10   21 16
3 11   27 13
3 13   27 0
3 14   24 0
3 16   21 0
3 19   18 0
3 25   15 0
4 3   11 23
4 4   11 26
4 6   11 17
4 8   11 9
4 9   11 0
11 30   0 0